
Gurobi 7.0.1 (linux64) logging started Sun Jul  2 21:15:38 2017

Optimize a model with 28874 rows, 14464 columns and 80225 nonzeros
Variable types: 0 continuous, 14464 integer (14464 binary)
Coefficient statistics:
  Matrix range     [1e+00, 9e+00]
  Objective range  [1e+00, 1e+00]
  Bounds range     [1e+00, 1e+00]
  RHS range        [1e+00, 5e+01]
Presolve removed 28741 rows and 14390 columns
Presolve time: 0.04s
Presolved: 133 rows, 74 columns, 817 nonzeros
Variable types: 0 continuous, 74 integer (74 binary)

Root relaxation: objective 5.000000e+00, 30 iterations, 0.00 seconds

    Nodes    |    Current Node    |     Objective Bounds      |     Work
 Expl Unexpl |  Obj  Depth IntInf | Incumbent    BestBd   Gap | It/Node Time

*    0     0               0       5.0000000    5.00000  0.00%     -    0s

Cutting planes:
  Lazy constraints: 4

Explored 0 nodes (48 simplex iterations) in 0.14 seconds
Thread count was 12 (of 12 available processors)

Solution count 1: 5 
Pool objective bound 5

Optimal solution found (tolerance 1.00e-04)
Best objective 5.000000000000e+00, best bound 5.000000000000e+00, gap 0.0000%
Optimize a model with 28874 rows, 14464 columns and 80225 nonzeros
Variable types: 0 continuous, 14464 integer (14464 binary)
Coefficient statistics:
  Matrix range     [1e+00, 9e+00]
  Objective range  [2e-01, 8e-01]
  Bounds range     [1e+00, 1e+00]
  RHS range        [1e+00, 5e+01]
Presolve removed 28741 rows and 14390 columns
Presolve time: 0.03s
Presolved: 133 rows, 74 columns, 817 nonzeros

Loaded MIP start with objective -0

Variable types: 0 continuous, 74 integer (74 binary)

Root relaxation: objective 2.380952e-01, 22 iterations, 0.00 seconds

    Nodes    |    Current Node    |     Objective Bounds      |     Work
 Expl Unexpl |  Obj  Depth IntInf | Incumbent    BestBd   Gap | It/Node Time

     0     0    0.23810    0    1   -0.00000    0.23810      -     -    0s
H    0     0                       0.2380952    0.23810  0.00%     -    0s

Cutting planes:
  Lazy constraints: 6

Explored 0 nodes (83 simplex iterations) in 0.15 seconds
Thread count was 12 (of 12 available processors)

Solution count 2: 0.238095 -0 
Pool objective bound 0.238095

Optimal solution found (tolerance 1.00e-04)
Best objective 2.380952380952e-01, best bound 2.380952380952e-01, gap 0.0000%
Optimize a model with 28874 rows, 14464 columns and 80225 nonzeros
Variable types: 0 continuous, 14464 integer (14464 binary)
Coefficient statistics:
  Matrix range     [1e+00, 9e+00]
  Objective range  [2e-01, 8e-01]
  Bounds range     [1e+00, 1e+00]
  RHS range        [1e+00, 5e+01]
Presolve removed 28741 rows and 14390 columns
Presolve time: 0.03s
Presolved: 133 rows, 74 columns, 817 nonzeros

Loaded MIP start with objective -0

Variable types: 0 continuous, 74 integer (74 binary)

Root relaxation: cutoff, 0 iterations, 0.00 seconds

Explored 0 nodes (0 simplex iterations) in 0.09 seconds
Thread count was 12 (of 12 available processors)

Solution count 1: -0 
Pool objective bound -0

Optimal solution found (tolerance 1.00e-04)
Best objective -0.000000000000e+00, best bound -0.000000000000e+00, gap -
